N = 25;
M = 40;
Edge_Start = [1, 1, 2, 2, 3, 3, 4, 4, 5, 6, 6, 7, 7, 8, 8, 9, 9, 10, 11, 11, 12, 12, 13, 13, 14, 14, 15, 16, 16, 17, 17, 18, 18, 19, 19, 20, 21, 22, 23, 24];
Edge_End = [2, 6, 3, 7, 4, 8, 5, 9, 10, 7, 11, 8, 12, 9, 13, 10, 14, 15, 12, 16, 13, 17, 14, 18, 15, 19, 20, 17, 21, 18, 22, 19, 23, 20, 24, 25, 22, 23, 24, 25];
L = [2, 2, 2, 3, 3, 3, 4, 3, 3, 2, 3, 5, 3, 3, 3, 5, 5, 3, 5, 2, 3, 5, 3, 5, 5, 3, 2, 4, 2, 2, 2, 3, 2, 5, 5, 4, 5, 2, 4, 4];
T = [0, 2, 7, 4, 5, 5, 2, 4, 3, 1, 1, 7, 1, 1, 8, 5, 10, 7, 8, 4, 4, 8, 4, 6, 7, 4, 4, 8, 3, 2, 0, 2, 1, 10, 3, 4, 5, 6, 9, 7];
Lower_Bound = [5, 4, 1, 0, 4, 2, 4, 5, 4, 1, 4, 0, 4, 5, 1, 1, 0, 1, 0, 4, 0, 2, 3, 4, 5];
Upper_Bound = [55, 55, 68, 74, 77, 77, 78, 91, 92, 100, 78, 86, 104, 111, 120, 82, 101, 114, 118, 135, 86, 101, 115, 128, 140];
Start = 1;
End = 25;
Time = 182;
